language ESSENCE' 1.0

letting fixed be 
[
    [1,0,0,0,0,0,5,6,9],
    [4,9,2,0,5,6,1,0,8],
    [0,5,6,1,0,9,2,4,0],
    [0,0,9,6,4,0,8,0,1],
    [0,6,4,0,1,0,0,0,0],
    [2,1,8,0,3,5,6,0,4],
    [0,4,0,5,0,0,0,1,6],
    [9,0,5,0,6,1,4,0,2],
    [6,2,1,0,0,0,0,0,5]
]